(set-logic ALL)
(declare-fun var0 () String)
(assert (str.in_re var0 (re.++ (re.* (re.union (str.to_re "0") (str.to_re "11"))) (re.++ (re.* (re.* (str.to_re "222"))) (re.++ (re.union (re.union (str.to_re "3") (str.to_re "4")) (re.union (str.to_re "5") (str.to_re "6"))) (re.++ (re.union (re.* (str.to_re "777")) (re.* (str.to_re "8"))) (re.++ (re.* (re.union (str.to_re "99") (str.to_re "aa"))) (re.++ (re.union (re.union (str.to_re "bbb") (str.to_re "ccc")) (re.union (str.to_re "ddd") (str.to_re "e"))) (re.++ (re.* (re.+ (str.to_re "f"))) (re.++ (re.+ (re.+ (str.to_re "gg"))) (re.++ (re.union (re.union (str.to_re "h") (str.to_re "i")) (re.union (str.to_re "jjj") (str.to_re "k"))) (re.* (re.union (str.to_re "lll") (str.to_re "m"))))))))))))))
(assert (<= 176 (str.len var0)))
(check-sat)